pair_style	hybrid/overlay eam/alloy zbl 1.4 1.8 zbl 0.9 1.50 zbl 0.20 0.35
pair_coeff   * * eam/alloy WHff.eam.alloy W H
pair_coeff  1 1 zbl 1 74.0 74.0 
pair_coeff  2 2 zbl 3 1.0  1.0
pair_coeff	1 2 zbl 2 74.0 1.0
mass 1 1.83840E+02
mass 2 1.00794E+00



